unsat
(:max-memory          18.18
 :memory              18.00
 :nlsat-conflicts     6
 :nlsat-decisions     1
 :nlsat-learned-added 5
 :nlsat-propagations  22
 :nlsat-stages        5
 :num-allocs          6891
 :rlimit-count        5647
 :time                0.00
 :total-time          0.01)
